20  5
  0  50  1  52  2  68  3  38  4  37
  0  73  1  64  2  34  3  74  4  86
  0  41  1  57  2  26  3  63  4  3
  0  41  1  86  2  23  3  26  4  74
  0  19  1  46  2  70  3  57  4  3
  0  88  1  26  2  21  3  94  4  94
  0  36  1  47  2  92  3  92  4  77
  0  59  1  61  2  39  3  93  4  70
  0  58  1  14  2  99  3  23  4  64
  0  3  1  17  2  32  3  19  4  21
  0  99  1  38  2  99  3  55  4  64
  0  22  1  3  2  28  3  33  4  30
  0  27  1  14  2  46  3  35  4  41
  0  73  1  19  2  5  3  3  4  62
  0  39  1  71  2  70  3  40  4  18
  0  17  1  3  2  6  3  68  4  18
  0  47  1  96  2  55  3  17  4  66
  0  60  1  38  2  12  3  55  4  74
  0  13  1  80  2  35  3  68  4  18
  0  84  1  36  2  81  3  65  4  17
